5
4
40
1 1.3 1.55 1.75 2.1
27 15 31 34 14 19 7 11 45 49 35 42 48 48 39 6 28 34 42 5 37 12 30 39 20 38 9 29 48 26 10 7 34 38 33 8 49 29 33 41 22 20 37 48 49 18 5 37 41 19 43 13 48 37 31 23 20 38 11 47 30 18 33 38 22 20 38 6 34 16 35 32 7 16 6 21 9 24 44 27 36 20 38 28 27 33 36 37 13 42 49 9 13 34 23 23 11 21 37 45 37 27 40 43 20 35 31 9 37 26 48 23 7 31 37 20 8 21 29 48 31 20 24 13 33 13 31 30 39 42 19 16 29 9 15 11 16 14 41 31 19 49 11 14 12 27 12 19 39 46 39 23 31 45 20 29 29 19 45 12 